Set parameter Username
Academic license - for non-commercial use only - expires 2022-06-20
Gurobi Optimizer version 9.5.1 build v9.5.1rc2 (mac64[x86])
Thread count: 2 physical cores, 4 logical processors, using up to 4 threads
Optimize a model with 3025 rows, 2916 columns and 11610 nonzeros
Model fingerprint: 0x1ded34f9
Variable types: 0 continuous, 2916 integer (2916 binary)
Coefficient statistics:
  Matrix range     [1e+00, 1e+03]
  Objective range  [1e+00, 9e+00]
  Bounds range     [1e+00, 1e+00]
  RHS range        [1e+00, 6e+00]
Found heuristic solution: objective 200.8580847
Presolve removed 54 rows and 0 columns
Presolve time: 0.07s
Presolved: 2971 rows, 2916 columns, 11610 nonzeros
Variable types: 0 continuous, 2916 integer (2916 binary)
Found heuristic solution: objective 188.2095456

Root relaxation: objective 5.982620e+01, 986 iterations, 0.05 seconds (0.04 work units)

    Nodes    |    Current Node    |     Objective Bounds      |     Work
 Expl Unexpl |  Obj  Depth IntInf | Incumbent    BestBd   Gap | It/Node Time

     0     0   59.82620    0   28  188.20955   59.82620  68.2%     -    0s
H    0     0                      92.1526651   59.82620  35.1%     -    0s
H    0     0                      63.5848343   59.82620  5.91%     -    0s
H    0     0                      62.8209023   59.82620  4.77%     -    0s
     0     0   61.67847    0   72   62.82090   61.67847  1.82%     -    0s
     0     0   61.67847    0   28   62.82090   61.67847  1.82%     -    0s
     0     0   61.67959    0  109   62.82090   61.67959  1.82%     -    0s
     0     0   61.73151    0   98   62.82090   61.73151  1.73%     -    0s
     0     0   61.97393    0  128   62.82090   61.97393  1.35%     -    0s
     0     0   61.97569    0   83   62.82090   61.97569  1.35%     -    0s
     0     0   62.03417    0  141   62.82090   62.03417  1.25%     -    0s
     0     0   62.03498    0  141   62.82090   62.03498  1.25%     -    0s
     0     0   62.04549    0  173   62.82090   62.04549  1.23%     -    0s
     0     0   62.04550    0  174   62.82090   62.04550  1.23%     -    0s
     0     0   62.09973    0  143   62.82090   62.09973  1.15%     -    0s
     0     0   62.09973    0   25   62.82090   62.09973  1.15%     -    0s
     0     0   62.09973    0  123   62.82090   62.09973  1.15%     -    0s
     0     0   62.09973    0  139   62.82090   62.09973  1.15%     -    0s
     0     0   62.17045    0  142   62.82090   62.17045  1.04%     -    0s
     0     0   62.17569    0  143   62.82090   62.17569  1.03%     -    0s
     0     0   62.17569    0  143   62.82090   62.17569  1.03%     -    0s
     0     0   62.25182    0  151   62.82090   62.25182  0.91%     -    0s
     0     0   62.25255    0  127   62.82090   62.25255  0.90%     -    0s
     0     0   62.25593    0  139   62.82090   62.25593  0.90%     -    0s
     0     0   62.25727    0  141   62.82090   62.25727  0.90%     -    0s
     0     0   62.25727    0  141   62.82090   62.25727  0.90%     -    0s
     0     0   62.26412    0   24   62.82090   62.26412  0.89%     -    0s
     0     0   62.26412    0   49   62.82090   62.26412  0.89%     -    0s
     0     0   62.26412    0   64   62.82090   62.26412  0.89%     -    0s
     0     0   62.33046    0   67   62.82090   62.33046  0.78%     -    0s
     0     0   62.40529    0   71   62.82090   62.40529  0.66%     -    0s
     0     0   62.41460    0   75   62.82090   62.41460  0.65%     -    0s
     0     0   62.41970    0   79   62.82090   62.41970  0.64%     -    0s
     0     0   62.46317    0   93   62.82090   62.46317  0.57%     -    0s
     0     0   62.46513    0   92   62.82090   62.46513  0.57%     -    0s
     0     0   62.48070    0   88   62.82090   62.48070  0.54%     -    0s
     0     0   62.48184    0   87   62.82090   62.48184  0.54%     -    0s
     0     0   62.51820    0   91   62.82090   62.51820  0.48%     -    0s
     0     0   62.51820    0   21   62.82090   62.51820  0.48%     -    0s
     0     0   62.51820    0   38   62.82090   62.51820  0.48%     -    0s
     0     0   62.51820    0   36   62.82090   62.51820  0.48%     -    0s
     0     0   62.54648    0   21   62.82090   62.54648  0.44%     -    0s
     0     0   62.58574    0   45   62.82090   62.58574  0.37%     -    0s
     0     0   62.59970    0   39   62.82090   62.59970  0.35%     -    0s
     0     0   62.60115    0   46   62.82090   62.60115  0.35%     -    0s
     0     0   62.64985    0   39   62.82090   62.64985  0.27%     -    0s
     0     0   62.64985    0   17   62.82090   62.64985  0.27%     -    0s
     0     0   62.64985    0   14   62.82090   62.64985  0.27%     -    0s
     0     0   62.64985    0   29   62.82090   62.64985  0.27%     -    0s
     0     0   62.64985    0   29   62.82090   62.64985  0.27%     -    0s
     0     0   62.65434    0   25   62.82090   62.65434  0.27%     -    0s
     0     0   62.67736    0   29   62.82090   62.67736  0.23%     -    0s
     0     0   62.68877    0   30   62.82090   62.68877  0.21%     -    0s
     0     0   62.69178    0   29   62.82090   62.69178  0.21%     -    0s
     0     0   62.76793    0   31   62.82090   62.76793  0.08%     -    0s
     0     0   62.76894    0   30   62.82090   62.76894  0.08%     -    0s
     0     0   62.78734    0   33   62.82090   62.78734  0.05%     -    0s
     0     0   62.78921    0   33   62.82090   62.78921  0.05%     -    0s
     0     0   62.79320    0   32   62.82090   62.79320  0.04%     -    0s
     0     0     cutoff    0        62.82090   62.82090  0.00%     -    0s

Cutting planes:
  Gomory: 1
  MIR: 13
  StrongCG: 8
  GUB cover: 5
  RLT: 1

Explored 1 nodes (4338 simplex iterations) in 0.95 seconds (0.50 work units)
Thread count was 4 (of 4 available processors)

Solution count 6: 62.8209 63.5848 83.9564 ... 200.858

Optimal solution found (tolerance 1.00e-04)
Best objective 6.282090230471e+01, best bound 6.282090230471e+01, gap 0.0000%
Gurobi Optimizer version 9.5.1 build v9.5.1rc2 (mac64[x86])
Thread count: 2 physical cores, 4 logical processors, using up to 4 threads
Optimize a model with 8803 rows, 12960 columns and 47094 nonzeros
Model fingerprint: 0xfa106627
Variable types: 10044 continuous, 2916 integer (2916 binary)
Coefficient statistics:
  Matrix range     [1e+00, 1e+03]
  Objective range  [1e+00, 9e+00]
  Bounds range     [1e+00, 1e+00]
  RHS range        [1e+00, 6e+00]

MIP start from previous solve did not produce a new incumbent solution

Presolve removed 108 rows and 186 columns
Presolve time: 0.33s
Presolved: 8695 rows, 12774 columns, 46714 nonzeros
Variable types: 9858 continuous, 2916 integer (2916 binary)

Root relaxation: objective 5.982620e+01, 1380 iterations, 0.11 seconds (0.08 work units)

    Nodes    |    Current Node    |     Objective Bounds      |     Work
 Expl Unexpl |  Obj  Depth IntInf | Incumbent    BestBd   Gap | It/Node Time

     0     0   59.82620    0   29          -   59.82620      -     -    0s
     0     0   61.68375    0   74          -   61.68375      -     -    1s
     0     0   61.72835    0   76          -   61.72835      -     -    1s
     0     0   61.72835    0   76          -   61.72835      -     -    1s
     0     0   62.11566    0  179          -   62.11566      -     -    1s
     0     0   62.15298    0  164          -   62.15298      -     -    1s
     0     0   62.17846    0  195          -   62.17846      -     -    1s
     0     0   62.18547    0  173          -   62.18547      -     -    2s
     0     0   62.20347    0  169          -   62.20347      -     -    2s
     0     0   62.20464    0  145          -   62.20464      -     -    2s
     0     0   62.25783    0  174          -   62.25783      -     -    2s
     0     0   62.25783    0  174          -   62.25783      -     -    2s
     0     0   62.26298    0  190          -   62.26298      -     -    2s
     0     0   62.26382    0  191          -   62.26382      -     -    2s
     0     0   62.26382    0  191          -   62.26382      -     -    2s
     0     0   62.26499    0  181          -   62.26499      -     -    3s
     0     0   62.26502    0  182          -   62.26502      -     -    3s
     0     0   62.27956    0  162          -   62.27956      -     -    3s
     0     0   62.27956    0  162          -   62.27956      -     -    3s
     0     0   62.31261    0  202          -   62.31261      -     -    3s
     0     0   62.31354    0  202          -   62.31354      -     -    3s
     0     0   62.31354    0  202          -   62.31354      -     -    3s
     0     0   62.31354    0  202          -   62.31354      -     -    3s
H    0     0                      67.3842481   62.31354  7.53%     -    4s
H    0     0                      66.2219704   62.31354  5.90%     -    4s
     0     0   62.31354    0   28   66.22197   62.31354  5.90%     -    4s
     0     0   62.31354    0  157   66.22197   62.31354  5.90%     -    5s
     0     0   62.31354    0  146   66.22197   62.31354  5.90%     -    5s
     0     0   62.31354    0  174   66.22197   62.31354  5.90%     -    5s
     0     0   62.31354    0  158   66.22197   62.31354  5.90%     -    5s
     0     0   62.31354    0  202   66.22197   62.31354  5.90%     -    5s
     0     0   62.31354    0  202   66.22197   62.31354  5.90%     -    5s
     0     0   62.34277    0  184   66.22197   62.34277  5.86%     -    6s
H    0     0                      65.6361840   62.34277  5.02%     -    6s
     0     0   62.34685    0  183   65.63618   62.34685  5.01%     -    6s
     0     0   62.34720    0  184   65.63618   62.34720  5.01%     -    6s
     0     0   62.34924    0  195   65.63618   62.34924  5.01%     -    6s
     0     0   62.34924    0  195   65.63618   62.34924  5.01%     -    6s
     0     0   62.34924    0  195   65.63618   62.34924  5.01%     -    6s
     0     0   62.34924    0  195   65.63618   62.34924  5.01%     -    6s
     0     0   62.34924    0  195   65.63618   62.34924  5.01%     -    6s
     0     0   62.34924    0  195   65.63618   62.34924  5.01%     -    7s
H    0     0                      65.2798928   62.34924  4.49%     -    7s
     0     0   62.34924    0   28   65.27989   62.34924  4.49%     -    8s
H    0     0                      63.6361840   62.34924  2.02%     -    8s
     0     0   62.34924    0  147   63.63618   62.34924  2.02%     -    8s
     0     0   62.34924    0   28   63.63618   62.34924  2.02%     -    8s
     0     0   62.34924    0  196   63.63618   62.34924  2.02%     -    8s
     0     0   62.34924    0  164   63.63618   62.34924  2.02%     -    8s
     0     0   62.34924    0  198   63.63618   62.34924  2.02%     -    8s
     0     0   62.34924    0  198   63.63618   62.34924  2.02%     -    8s
     0     0   62.34924    0  196   63.63618   62.34924  2.02%     -    8s
     0     0   62.34924    0  188   63.63618   62.34924  2.02%     -    8s
     0     0   62.34924    0  200   63.63618   62.34924  2.02%     -    9s
H    0     0                      63.2285432   62.34924  1.39%     -    9s
     0     0   62.34924    0  192   63.22854   62.34924  1.39%     -    9s
     0     0   62.34924    0  192   63.22854   62.34924  1.39%     -    9s
     0     0   62.34924    0  193   63.22854   62.34924  1.39%     -    9s
     0     0   62.34924    0  187   63.22854   62.34924  1.39%     -    9s
     0     0   62.34924    0   27   63.22854   62.34924  1.39%     -    9s
     0     0   62.34924    0  187   63.22854   62.34924  1.39%     -    9s
     0     0   62.34924    0  170   63.22854   62.34924  1.39%     -    9s
     0     0   62.34924    0  178   63.22854   62.34924  1.39%     -    9s
     0     0   62.34924    0  178   63.22854   62.34924  1.39%     -    9s
     0     0   62.34924    0  153   63.22854   62.34924  1.39%     -    9s
H    0     0                      62.8722520   62.34924  0.83%     -    9s
     0     0   62.34924    0  157   62.87225   62.34924  0.83%     -    9s
     0     0   62.34924    0   25   62.87225   62.34924  0.83%     -   10s
     0     0   62.34924    0  123   62.87225   62.34924  0.83%     -   10s
     0     0   62.34924    0  119   62.87225   62.34924  0.83%     -   10s
     0     0   62.34924    0  158   62.87225   62.34924  0.83%     -   10s
     0     0   62.34924    0  159   62.87225   62.34924  0.83%     -   10s
     0     0   62.34924    0  128   62.87225   62.34924  0.83%     -   10s
     0     0   62.34954    0  149   62.87225   62.34954  0.83%     -   10s
     0     0   62.36572    0  109   62.87225   62.36572  0.81%     -   10s
     0     0   62.37236    0  118   62.87225   62.37236  0.80%     -   10s
     0     0   62.39248    0  150   62.87225   62.39248  0.76%     -   10s
     0     0   62.39348    0  149   62.87225   62.39348  0.76%     -   10s
     0     0   62.39352    0  159   62.87225   62.39352  0.76%     -   10s
     0     0   62.39549    0  167   62.87225   62.39549  0.76%     -   10s
     0     0   62.39549    0  167   62.87225   62.39549  0.76%     -   10s
     0     0   62.39564    0  168   62.87225   62.39564  0.76%     -   10s
     0     0   62.39609    0  168   62.87225   62.39609  0.76%     -   10s
     0     0   62.39609    0  168   62.87225   62.39609  0.76%     -   10s
     0     2   62.41014    0  168   62.87225   62.41014  0.73%     -   10s

Cutting planes:
  Gomory: 2
  Lift-and-project: 1
  Cover: 1
  Implied bound: 3
  Clique: 2
  MIR: 11
  StrongCG: 5
  Flow cover: 12
  GUB cover: 3
  RLT: 6

Explored 72 nodes (12779 simplex iterations) in 10.60 seconds (4.55 work units)
Thread count was 4 (of 4 available processors)

Solution count 7: 62.8723 63.2285 63.6362 ... 67.3842

Optimal solution found (tolerance 1.00e-04)
Best objective 6.287225198771e+01, best bound 6.287225198771e+01, gap 0.0000%
